data/instances/vrp_files/train_65.vrp
NAME : 65
COMMENT : Generated instance No. 65
TYPE : CVRP
DIMENSION : 21
EDGE_WEIGHT_TYPE : EUC_2D
CAPACITY : 30
NODE_COORD_SECTION
 1 523 218
 2 355 45
 3 217 15
 4 581 105
 5 873 523
 6 699 410
 7 560 942
 8 82 253
 9 779 98
 10 75 361
 11 92 585
 12 226 895
 13 783 699
 14 616 863
 15 223 873
 16 789 748
 17 561 246
 18 423 793
 19 31 782
 20 240 144
 21 115 27
DEMAND_SECTION
1 0
2 5
3 1
4 1
5 9
6 10
7 6
8 10
9 5
10 1
11 6
12 6
13 3
14 8
15 1
16 1
17 6
18 10
19 1
20 6
21 1
DEPOT_SECTION
 1
 -1
EOF